webassembly/ejemplos_dzn/15/folder15_json_93.dzn
TERM = { '.', 's(5)', 's(2)', 's(4)', 'in_1', 'local_0', 'local_1', 'in_6', 'in_2', 'in_4', 'in_3', 's(6)', 's(1)', 's(0)', 's(7)', 'in_5', 's(3)', 'in_0'};
null = '.';
s = 15;
n = 12;
ndeps = 7;
max_registers_sz = 4;
NR = 1;
registers = [|'local_1', 's(5)'|];
dependencies = [|'i32.load8_s_0', 'call[function_index(0)]_5', |'call[function_index(0)]_5', 'i32.store8_6', |'i32.store8_6', 'i32.load8_s_8', |'i32.store_10', 'i32.store_12', |'i32.store_12', 'i32.load8_u_14', |'i32.load16_u_3', 'call[function_index(0)]_5', |'i32.load8_s_8', 'i32.store_10'|];
GET_ENUM = { GET1, GET2, GET3, GET4, GET5};
SET_ENUM = { SET1, SET2, SET3, SET4, SET5};
TEE_ENUM = { TEE1, TEE2, TEE3, TEE4, TEE5};
N = 11;
OP = { 'call[function_index(0)]_5', 'i32.load8_s_0', 'i32.sub_0', 'i32.load16_u_3', 'i32.store8_6', 'i32.load8_s_8', 'i32.store_10', 'i32.const_0', 'i32.store_12', 'i32.load8_u_14', 'local.get_0' };
in_ops = [2, 1, 2, 1, 2, 1, 2, 0, 2, 1, 0 ];
out_ops = [2, 1, 1, 1, 0, 1, 0, 1, 0, 1, 1 ];
in1 = ['s(0)', 'in_0', 's(0)', 's(1)', 's(4)', 'in_3', 'in_4', '.', 's(7)', 'local_0', '.' ];
in2 = ['s(2)', '.', 'in_1', '.', 's(3)', '.', 'in_5', '.', 'in_6', '.', '.' ];
in3 = ['.', '.', '.', '.', '.', '.', '.', '.', '.', '.', '.' ];
out1 = ['s(4)', 's(0)', 's(1)', 's(2)', '.', 's(5)', '.', 's(7)', '.', 's(6)', 'local_0' ];
out2 = ['s(3)', '.', '.', '.', '.', '.', '.', '.', '.', '.', '.' ];
out3 = ['.', '.', '.', '.', '.', '.', '.', '.', '.', '.', '.' ];
comm = [false, false, false, false, false, false, false, false, false, false, false ];
gas = [1, 1, 1, 1, 1, 1, 1, 1, 1, 1, 1 ];
sz = [1, 1, 1, 1, 1, 1, 1, 1, 1, 1, 1 ];
stor = [true, false, false, false, true, false, true, false, true, false, false ];
lb = [ 1, 1, 1, 1, 1, 1, 1, 1, 1, 1, 1 ];
ub = [ 15, 15, 15, 15, 15, 15, 15, 15, 15, 15, 15 ];
startstack = [ 'in_0', 'in_1', 'in_2', 'in_3', 'in_4', 'in_5', 'in_6', null, null, null, null, null ];
endstack = [ 's(6)', null, null, null, null, null, null, null, null, null, null, null ];
